benchmarks/bfuzz0/2001947352936038518480319763726266.smt2
(set-logic QF_FP)
(declare-const x0 (_ FloatingPoint 11 53))
(declare-const x1 (_ FloatingPoint 11 53))
(declare-const x2 (_ FloatingPoint 11 53))
(declare-const x3 (_ FloatingPoint 11 53))
(declare-const x4 (_ FloatingPoint 11 53))
(declare-const x5 (_ FloatingPoint 11 53))
(declare-const x6 (_ FloatingPoint 11 53))
(declare-const x7 (_ FloatingPoint 11 53))
(declare-const x8 (_ FloatingPoint 11 53))
(declare-const x9 (_ FloatingPoint 11 53))
(declare-const x10 (_ FloatingPoint 11 53))
(declare-const x11 (_ FloatingPoint 11 53))
(declare-const x12 (_ FloatingPoint 11 53))
(declare-const x13 (_ FloatingPoint 11 53))
(declare-const x14 (_ FloatingPoint 11 53))
(declare-const x15 (_ FloatingPoint 11 53))
(declare-const x16 (_ FloatingPoint 11 53))
(declare-const x17 (_ FloatingPoint 11 53))
(assert (fp.eq (fp.sub RNE x11 x6) (fp.sub RNE x13 x12)))
(assert (fp.leq (fp.sub RNE x10 x10) (fp.div RNE x13 x5)))
(assert (fp.leq (fp.sub RNE x10 x2) (fp.neg x13)))
(assert (fp.leq (fp.div RNE x16 x0) (fp.mul RNE x14 x15)))
(assert (fp.gt (fp.neg x5) (fp.add RNE x11 x17)))
(assert (fp.leq (fp.add RNE x11 x5) (fp.add RNE x2 x12)))
(assert (fp.lt (fp.sub RNE x17 x15) (fp.mul RNE x14 x8)))
(assert (fp.leq (fp.neg x9) (fp.sub RNE x7 x6)))
(assert (fp.geq (fp.sub RNE x8 x17) (fp.add RNE x10 x16)))
(assert (fp.leq (fp.neg x16) (fp.div RNE x13 x14)))
(assert (fp.leq (fp.add RNE x15 x3) (fp.add RNE x12 x2)))
(assert (fp.lt (fp.div RNE x9 x1) (fp.div RNE x1 x15)))
(assert (fp.leq (fp.mul RNE x17 x11) (fp.neg x12)))
(assert (fp.gt (fp.sub RNE x11 x13) (fp.neg x5)))
(assert (fp.geq (fp.neg x4) (fp.div RNE x14 x15)))
(assert (fp.geq (fp.sub RNE x17 x17) (fp.add RNE x1 x0)))
(assert (fp.gt (fp.sub RNE x12 x10) (fp.mul RNE x1 x12)))
(assert (fp.gt (fp.mul RNE x1 x5) (fp.neg x4)))
(assert (fp.geq (fp.sub RNE x3 x5) (fp.sub RNE x15 x13)))
(check-sat)
