db/data/2001947352936038518480319763726266.z3.out
-------------------
2500.218426635
